23 38 7449
38 29 745
29 28 17517
28 13 6411
13 7 23211
7 36 11794
36 6 22446
6 9 47658
9 8 54349
8 15 26227
15 17 45489
17 14 42391
14 3 30026
3 16 71701
16 35 56496
35 11 5412
11 1 8732
1 21 6578
21 10 5744
10 2 10593
2 27 15288
27 18 12606
18 40 18404
40 19 13572
19 4 26533
4 22 23621
22 24 45980
24 20 65657
20 32 24202
32 5 3290
5 12 38538
12 33 3967
33 26 15458
26 37 14546
37 30 941
30 39 6375
39 31 9087
31 25 7859
25 34 30137
34 23 31609
